lbl,CUST NO.,READY TIME,XCOORD.,YCOORD.,DEMAND,DUE DATE,SERVICE TIME
1,383,85,175,60,18,95,10
1,79,92,180,66,13,102,10
1,195,93,173,42,3,103,10
1,322,109,164,37,19,119,10
1,35,197,171,69,19,207,10
1,275,214,188,70,13,224,10
1,175,232,168,58,29,242,10
1,59,236,176,58,21,246,10
1,289,296,172,66,23,306,10
1,2,369,178,61,19,379,10
1,68,380,181,39,11,390,10
1,229,465,172,55,11,475,10
1,5,477,186,65,39,487,10
1,121,535,181,70,25,545,10
1,70,643,171,36,6,653,10
